c 
c G(n,p) graph
c graph gen seed     : 8102
c number of vertices : 50
c max number of edges: 1225
c edge probability   : 0.400000
c data structure     : sparse
c
c           Graph Stats
c number of vertices  : 50
c nonisolated vertices: 50
c number of edges     : 476
c edge density        : 0.388571
c max degree          : 29
c avg degree          : 19.04
c min degree          : 11
p col 50 476
e 1 39
e 1 37
e 1 35
e 1 33
e 1 27
e 1 23
e 1 20
e 1 19
e 1 18
e 1 13
e 1 11
e 1 6
e 1 5
e 1 4
e 1 3
e 2 49
e 2 46
e 2 45
e 2 42
e 2 34
e 2 31
e 2 30
e 2 26
e 2 23
e 2 19
e 2 16
e 2 14
e 2 10
e 2 5
e 2 4
e 3 48
e 3 46
e 3 45
e 3 37
e 3 36
e 3 35
e 3 30
e 3 9
e 3 6
e 3 5
e 4 48
e 4 46
e 4 39
e 4 37
e 4 35
e 4 33
e 4 32
e 4 30
e 4 29
e 4 26
e 4 25
e 4 24
e 4 23
e 4 22
e 4 20
e 4 18
e 4 10
e 4 7
e 4 6
e 5 45
e 5 44
e 5 39
e 5 38
e 5 36
e 5 35
e 5 32
e 5 31
e 5 29
e 5 28
e 5 26
e 5 23
e 5 21
e 5 17
e 5 16
e 5 14
e 5 12
e 5 11
e 5 10
e 5 8
e 5 6
e 6 47
e 6 46
e 6 41
e 6 40
e 6 39
e 6 34
e 6 29
e 6 27
e 6 24
e 6 23
e 6 21
e 6 19
e 6 16
e 6 10
e 7 50
e 7 49
e 7 47
e 7 45
e 7 43
e 7 42
e 7 39
e 7 38
e 7 37
e 7 27
e 7 25
e 7 24
e 7 21
e 7 20
e 7 15
e 7 14
e 7 10
e 7 8
e 8 49
e 8 44
e 8 43
e 8 42
e 8 40
e 8 39
e 8 37
e 8 36
e 8 35
e 8 34
e 8 33
e 8 26
e 8 19
e 8 18
e 8 17
e 8 16
e 8 14
e 8 13
e 8 11
e 8 9
e 9 49
e 9 47
e 9 43
e 9 40
e 9 38
e 9 37
e 9 36
e 9 34
e 9 33
e 9 29
e 9 25
e 9 24
e 9 16
e 9 10
e 10 49
e 10 47
e 10 43
e 10 35
e 10 33
e 10 32
e 10 29
e 10 26
e 10 24
e 10 23
e 10 20
e 10 19
e 10 17
e 10 16
e 10 14
e 11 48
e 11 45
e 11 43
e 11 39
e 11 30
e 11 25
e 11 23
e 11 21
e 11 17
e 11 15
e 11 14
e 11 13
e 12 50
e 12 45
e 12 41
e 12 40
e 12 35
e 12 34
e 12 32
e 12 31
e 12 28
e 12 27
e 12 24
e 12 23
e 12 22
e 12 18
e 12 17
e 12 14
e 13 50
e 13 47
e 13 46
e 13 45
e 13 42
e 13 38
e 13 37
e 13 34
e 13 29
e 13 26
e 13 25
e 13 21
e 13 18
e 13 15
e 13 14
e 14 49
e 14 48
e 14 43
e 14 37
e 14 31
e 14 26
e 14 23
e 14 22
e 14 16
e 15 49
e 15 48
e 15 47
e 15 37
e 15 35
e 15 34
e 15 33
e 15 25
e 15 23
e 15 22
e 15 21
e 15 17
e 16 48
e 16 45
e 16 44
e 16 42
e 16 41
e 16 39
e 16 38
e 16 37
e 16 36
e 16 32
e 16 31
e 16 29
e 16 28
e 16 24
e 16 20
e 16 18
e 17 50
e 17 46
e 17 43
e 17 42
e 17 37
e 17 36
e 17 34
e 17 31
e 17 30
e 17 29
e 17 28
e 17 23
e 17 20
e 17 19
e 17 18
e 18 49
e 18 48
e 18 47
e 18 45
e 18 44
e 18 42
e 18 39
e 18 38
e 18 37
e 18 36
e 18 34
e 18 31
e 18 30
e 18 25
e 19 47
e 19 44
e 19 43
e 19 41
e 19 39
e 19 37
e 19 35
e 19 34
e 19 30
e 19 28
e 19 27
e 19 26
e 19 25
e 19 24
e 19 23
e 19 22
e 20 48
e 20 42
e 20 40
e 20 38
e 20 36
e 20 35
e 20 32
e 20 31
e 20 27
e 20 25
e 20 24
e 20 21
e 21 50
e 21 48
e 21 46
e 21 44
e 21 39
e 21 30
e 21 27
e 21 26
e 22 48
e 22 47
e 22 44
e 22 43
e 22 42
e 22 41
e 22 40
e 22 38
e 22 34
e 22 33
e 22 23
e 23 49
e 23 46
e 23 43
e 23 41
e 23 36
e 23 33
e 23 30
e 23 27
e 23 24
e 24 50
e 24 48
e 24 41
e 24 37
e 24 33
e 24 30
e 24 29
e 25 49
e 25 46
e 25 45
e 25 44
e 25 40
e 25 37
e 25 33
e 25 32
e 25 30
e 25 29
e 26 48
e 26 47
e 26 38
e 26 37
e 26 35
e 26 33
e 26 31
e 27 47
e 27 43
e 27 41
e 27 40
e 27 38
e 27 37
e 27 35
e 27 33
e 27 30
e 27 29
e 27 28
e 28 49
e 28 48
e 28 38
e 28 35
e 28 34
e 28 32
e 28 31
e 28 30
e 28 29
e 29 49
e 29 48
e 29 46
e 29 43
e 29 40
e 29 36
e 29 33
e 29 32
e 29 31
e 30 49
e 30 47
e 30 46
e 30 45
e 30 44
e 30 42
e 30 41
e 30 36
e 30 35
e 30 33
e 31 50
e 31 49
e 31 45
e 31 43
e 31 42
e 31 41
e 31 40
e 31 39
e 31 35
e 31 33
e 31 32
e 32 50
e 32 49
e 32 47
e 32 46
e 32 45
e 32 44
e 32 40
e 32 37
e 32 33
e 33 50
e 33 48
e 33 38
e 33 34
e 34 46
e 34 45
e 35 50
e 35 48
e 35 42
e 35 41
e 35 38
e 35 37
e 35 36
e 36 50
e 36 41
e 37 50
e 37 48
e 37 46
e 37 45
e 37 44
e 37 43
e 37 41
e 37 40
e 37 39
e 37 38
e 38 50
e 38 48
e 38 46
e 38 45
e 38 43
e 38 42
e 38 41
e 38 40
e 39 49
e 39 47
e 39 44
e 39 42
e 39 41
e 40 50
e 40 49
e 40 44
e 40 43
e 41 50
e 41 47
e 41 45
e 41 44
e 41 43
e 41 42
e 42 50
e 42 46
e 43 49
e 43 48
e 43 47
e 43 46
e 43 45
e 44 50
e 44 48
e 44 47
e 44 46
e 45 49
e 45 46
e 46 50
e 46 49
e 46 48
e 47 50
e 47 49
e 49 50
